p cnf 41 243
1 -29 0 
29 -1 14 15 16 18 22 23 25 26 27 28 0 
1 -28 2 3 4 5 6 7 8 0 
1 -27 2 3 4 5 6 7 8 0 
1 -26 2 3 4 5 6 7 8 0 
1 -25 3 0 
1 -18 2 3 4 5 6 7 8 0 
1 -16 2 3 4 5 6 7 8 0 
1 -15 2 3 4 5 6 7 8 0 
1 -14 2 3 4 5 6 7 8 0 
24 -8 14 15 16 17 18 19 20 21 22 23 27 26 28 0 
8 -21 2 5 6 7 4 0 
24 -7 14 15 16 17 18 19 20 21 22 23 27 26 28 0 
24 -6 14 15 16 17 18 19 20 21 22 23 27 26 28 0 
10 -13 9 0 
10 -12 9 0 
10 -11 9 0 
24 -4 14 15 16 17 18 19 20 21 22 23 27 26 28 0 
28 -3 14 15 16 17 18 19 20 22 23 24 25 26 27 0 
3 -24 5 6 7 4 8 2 0 
3 -20 5 6 7 4 8 2 0 
3 -19 5 6 7 4 8 2 0 
3 -17 5 6 7 4 8 2 0 
24 -2 14 15 16 17 18 19 20 21 22 23 27 26 28 0 
2 -23 3 4 5 6 7 8 0 
2 -22 3 4 5 6 7 8 0 
-2 -3 0 
-2 -4 0 
-2 -5 0 
-2 -6 0 
-2 -7 0 
-3 -4 0 
-2 -8 0 
-2 -9 0 
-3 -5 0 
-2 -10 0 
-2 -11 0 
-3 -6 0 
-2 -12 0 
-2 -13 0 
-3 -7 0 
-4 -5 0 
-3 -8 0 
-4 -6 0 
-3 -9 0 
-3 -10 0 
-4 -7 0 
-3 -11 0 
-5 -6 0 
-4 -8 0 
-3 -12 0 
-2 -25 0 
-3 -13 0 
-4 -9 0 
-5 -7 0 
-2 -28 0 
-4 -10 0 
-2 -29 0 
-5 -8 0 
-4 -11 0 
-6 -7 0 
-17 -3 0 
-5 -9 0 
-4 -12 0 
-6 -8 0 
-4 -13 0 
-5 -10 0 
-21 -3 0 
-5 -11 0 
-6 -9 0 
-2 -1 0 
1 2 3 4 5 6 7 8 9 10 0 
-7 -8 0 
-5 -12 0 
-6 -10 0 
-5 -13 0 
-7 -9 0 
-6 -11 0 
-7 -10 0 
-6 -12 0 
-3 -29 0 
-8 -9 0 
-6 -13 0 
-7 -11 0 
-8 -10 0 
-7 -12 0 
-8 -11 0 
-4 -25 0 
-7 -13 0 
-9 -10 0 
-8 -12 0 
-4 -28 0 
-3 -1 0 
1 3 -28 0 
-4 -29 0 
-8 -13 0 
-5 -25 0 
-9 -14 0 
-5 -28 0 
-11 -12 0 
-5 -29 0 
-15 -9 0 
-10 -14 0 
-6 -25 0 
-9 -16 0 
-11 -13 0 
-4 -1 0 
-15 -10 0 
-9 -17 0 
-11 -14 0 
-12 -13 0 
-6 -28 0 
-10 -16 0 
-18 -9 0 
-6 -29 0 
-11 -15 0 
-12 -14 0 
-7 -25 0 
-9 -19 0 
-10 -17 0 
-11 -16 0 
-9 -20 0 
-18 -10 0 
-12 -15 0 
-13 -14 0 
-9 -21 0 
-11 -17 0 
-7 -28 0 
-10 -19 0 
-5 -1 0 
-12 -16 0 
-7 -29 0 
-8 -25 0 
-9 -22 0 
-13 -15 0 
-11 -18 0 
-10 -20 0 
-23 -9 0 
-12 -17 0 
-10 -21 0 
-11 -19 0 
-13 -16 0 
-9 -24 0 
-12 -18 0 
-8 -28 0 
-10 -22 0 
-11 -20 0 
-9 -25 0 
-13 -17 0 
-14 -16 0 
-8 -29 0 
-23 -10 0 
-12 -19 0 
-9 -26 0 
-11 -21 0 
-13 -18 0 
-6 -1 0 
-10 -24 0 
-9 -27 0 
-12 -20 0 
-11 -22 0 
-15 -16 0 
-9 -28 0 
-10 -25 0 
-13 -19 0 
-11 -23 0 
-12 -21 0 
-9 -29 0 
-10 -26 0 
-13 -20 0 
-11 -24 0 
-12 -22 0 
-10 -27 0 
-11 -25 0 
-13 -21 0 
-12 -23 0 
-10 -28 0 
-7 -1 0 
-11 -26 0 
-10 -29 0 
-13 -22 0 
-12 -24 0 
-16 -18 0 
-11 -27 0 
-12 -25 0 
-13 -23 0 
-11 -28 0 
-12 -26 0 
-13 -24 0 
-12 -27 0 
-8 -1 0 
-13 -25 0 
-12 -28 0 
-13 -26 0 
-13 -27 0 
-13 -28 0 
-9 -1 0 
-19 -20 0 
-10 -1 0 
-17 -25 0 
-11 -1 0 
-28 -17 0 
-25 -19 0 
-17 -29 0 
-12 -1 0 
-25 -20 0 
-13 -1 0 
-25 -24 0 
-25 -26 0 
-25 -27 0 
-25 -28 0 
-17 -1 0 
-1 -19 0 
-1 -20 0 
-21 -1 0 
30 31 32 33 34 35 36 37 38 39 40 41 9 10 0 
-31 -32 0 
-1 -24 0 
-30 -34 0 
-31 -34 0 
-33 -32 0 
-31 -35 0 
-34 -32 0 
-31 -37 0 
-34 -35 0 
-39 -31 0 
-30 -41 0 
-40 -31 0 
-31 -41 0 
-40 -32 0 
-41 -32 0 
-39 -34 0 
-36 -37 0 
-33 -41 0 
-34 -40 0 
-34 -41 0 
-35 -41 0 
-36 -41 0 
-37 -41 0 
-38 -41 0 
-39 -40 0 
-39 -41 0 
-40 -41 0 
c p weight 1 0.502392 0
c p weight -1 0.497608 0
c p weight 2 0.41482 0
c p weight -2 0.585180 0
c p weight 3 0.571101 0
c p weight -3 0.428899 0
c p weight 4 0.426536 0
c p weight -4 0.573464 0
c p weight 5 0.49981 0
c p weight -5 0.500190 0
c p weight 6 0.484748 0
c p weight -6 0.515252 0
c p weight 7 0.545048 0
c p weight -7 0.454952 0
c p weight 8 0.596668 0
c p weight -8 0.403332 0
c p weight 9 0.533649 0
c p weight -9 0.466351 0
c p weight 10 0.496506 0
c p weight -10 0.503494 0
c p weight 11 0.503383 0
c p weight -11 0.496617 0
c p weight 12 0.459797 0
c p weight -12 0.540203 0
c p weight 13 0.487116 0
c p weight -13 0.512884 0
c p weight 14 0.553328 0
c p weight -14 0.446672 0
c p weight 15 0.427783 0
c p weight -15 0.572217 0
c p weight 16 0.531894 0
c p weight -16 0.468106 0
c p weight 17 0.451686 0
c p weight -17 0.548314 0
c p weight 18 0.543018 0
c p weight -18 0.456982 0
c p weight 19 0.486748 0
c p weight -19 0.513252 0
c p weight 20 0.588888 0
c p weight -20 0.411112 0
c p weight 21 0.51986 0
c p weight -21 0.480140 0
c p weight 22 0.529799 0
c p weight -22 0.470201 0
c p weight 23 0.535346 0
c p weight -23 0.464654 0
c p weight 24 0.512707 0
c p weight -24 0.487293 0
c p weight 25 0.537595 0
c p weight -25 0.462405 0
c p weight 26 0.423335 0
c p weight -26 0.576665 0
c p weight 27 0.492715 0
c p weight -27 0.507285 0
c p weight 28 0.558662 0
c p weight -28 0.441338 0
c p weight 29 0.44132 0
c p weight -29 0.558680 0
c p weight 30 0.452487 0
c p weight -30 0.547513 0
c p weight 31 0.484591 0
c p weight -31 0.515409 0
c p weight 32 0.535908 0
c p weight -32 0.464092 0
c p weight 33 0.460435 0
c p weight -33 0.539565 0
c p weight 34 0.449535 0
c p weight -34 0.550465 0
c p weight 35 0.53539 0
c p weight -35 0.464610 0
c p weight 36 0.501822 0
c p weight -36 0.498178 0
c p weight 37 0.514171 0
c p weight -37 0.485829 0
c p weight 38 0.509392 0
c p weight -38 0.490608 0
c p weight 39 0.569238 0
c p weight -39 0.430762 0
c p weight 40 0.502665 0
c p weight -40 0.497335 0
c p weight 41 0.392949 0
c p weight -41 0.607051 0
